(declare-fun var0 () String)
(assert (RegexIn var0 (RegexConcat (RegexUnion (RegexStar (Str2Reg "VV")) (RegexPlus (Str2Reg "WW"))) (RegexConcat (RegexUnion (RegexStar (Str2Reg "SSS")) (RegexUnion (Str2Reg "TT") (Str2Reg "UU"))) (RegexConcat (RegexUnion (RegexStar (Str2Reg "QQQ")) (RegexStar (Str2Reg "RR"))) (RegexConcat (RegexPlus (RegexStar (Str2Reg "PPP"))) (RegexConcat (RegexUnion (RegexUnion (Str2Reg "MMM") (Str2Reg "N")) (RegexStar (Str2Reg "OOO"))) (RegexConcat (RegexPlus (RegexPlus (Str2Reg "LLL"))) (RegexConcat (RegexUnion (RegexStar (Str2Reg "JJJ")) (RegexStar (Str2Reg "KK"))) (RegexConcat (RegexPlus (RegexStar (Str2Reg "III"))) (RegexConcat (RegexUnion (RegexStar (Str2Reg "FF")) (RegexUnion (Str2Reg "GG") (Str2Reg "HH"))) (RegexConcat (RegexPlus (RegexUnion (Str2Reg "D") (Str2Reg "EE"))) (RegexConcat (RegexStar (RegexUnion (Str2Reg "BB") (Str2Reg "C"))) (RegexConcat (RegexPlus (RegexStar (Str2Reg "A"))) (RegexConcat (RegexPlus (RegexPlus (Str2Reg "z"))) (RegexConcat (RegexPlus (RegexPlus (Str2Reg "yy"))) (RegexConcat (RegexUnion (RegexStar (Str2Reg "ww")) (RegexStar (Str2Reg "xxx"))) (RegexConcat (RegexStar (RegexUnion (Str2Reg "uu") (Str2Reg "vv"))) (RegexConcat (RegexStar (RegexUnion (Str2Reg "s") (Str2Reg "tt"))) (RegexConcat (RegexStar (RegexStar (Str2Reg "r"))) (RegexConcat (RegexUnion (RegexUnion (Str2Reg "n") (Str2Reg "oo")) (RegexUnion (Str2Reg "pp") (Str2Reg "qqq"))) (RegexConcat (RegexPlus (RegexPlus (Str2Reg "m"))) (RegexConcat (RegexStar (RegexUnion (Str2Reg "k") (Str2Reg "ll"))) (RegexConcat (RegexUnion (RegexStar (Str2Reg "hh")) (RegexUnion (Str2Reg "iii") (Str2Reg "jj"))) (RegexConcat (RegexPlus (RegexPlus (Str2Reg "gg"))) (RegexConcat (RegexStar (RegexUnion (Str2Reg "ee") (Str2Reg "ff"))) (RegexConcat (RegexStar (RegexPlus (Str2Reg "d"))) (RegexConcat (RegexStar (RegexUnion (Str2Reg "bb") (Str2Reg "ccc"))) (RegexConcat (RegexPlus (RegexPlus (Str2Reg "a"))) (RegexConcat (RegexPlus (RegexUnion (Str2Reg "88") (Str2Reg "999"))) (RegexConcat (RegexPlus (RegexUnion (Str2Reg "6") (Str2Reg "77"))) (RegexConcat (RegexUnion (RegexPlus (Str2Reg "33")) (RegexUnion (Str2Reg "4") (Str2Reg "55"))) (RegexUnion (RegexStar (Str2Reg "0")) (RegexUnion (Str2Reg "111") (Str2Reg "22")))))))))))))))))))))))))))))))))))
(assert (not (RegexIn var0 (RegexConcat (RegexUnion (RegexPlus (Str2Reg "JJJ")) (RegexPlus (Str2Reg "KK"))) (RegexConcat (RegexStar (RegexStar (Str2Reg "II"))) (RegexConcat (RegexUnion (RegexUnion (Str2Reg "FFF") (Str2Reg "GGG")) (RegexStar (Str2Reg "H"))) (RegexConcat (RegexStar (RegexUnion (Str2Reg "D") (Str2Reg "EE"))) (RegexConcat (RegexStar (RegexStar (Str2Reg "CCC"))) (RegexConcat (RegexStar (RegexUnion (Str2Reg "AA") (Str2Reg "B"))) (RegexConcat (RegexStar (RegexPlus (Str2Reg "zzz"))) (RegexConcat (RegexStar (RegexUnion (Str2Reg "xx") (Str2Reg "yy"))) (RegexConcat (RegexPlus (RegexPlus (Str2Reg "www"))) (RegexConcat (RegexPlus (RegexStar (Str2Reg "v"))) (RegexConcat (RegexPlus (RegexUnion (Str2Reg "ttt") (Str2Reg "uuu"))) (RegexConcat (RegexStar (RegexUnion (Str2Reg "rrr") (Str2Reg "ss"))) (RegexConcat (RegexUnion (RegexStar (Str2Reg "ppp")) (RegexPlus (Str2Reg "qqq"))) (RegexConcat (RegexStar (RegexUnion (Str2Reg "n") (Str2Reg "ooo"))) (RegexConcat (RegexStar (RegexPlus (Str2Reg "mmm"))) (RegexConcat (RegexPlus (RegexStar (Str2Reg "lll"))) (RegexConcat (RegexStar (RegexStar (Str2Reg "kk"))) (RegexConcat (RegexPlus (RegexStar (Str2Reg "jj"))) (RegexConcat (RegexUnion (RegexUnion (Str2Reg "ggg") (Str2Reg "hh")) (RegexStar (Str2Reg "i"))) (RegexConcat (RegexStar (RegexUnion (Str2Reg "ee") (Str2Reg "ff"))) (RegexConcat (RegexStar (RegexPlus (Str2Reg "dd"))) (RegexConcat (RegexPlus (RegexPlus (Str2Reg "c"))) (RegexConcat (RegexStar (RegexPlus (Str2Reg "b"))) (RegexConcat (RegexStar (RegexPlus (Str2Reg "aa"))) (RegexConcat (RegexStar (RegexStar (Str2Reg "9"))) (RegexConcat (RegexPlus (RegexStar (Str2Reg "88"))) (RegexConcat (RegexUnion (RegexUnion (Str2Reg "55") (Str2Reg "66")) (RegexStar (Str2Reg "777"))) (RegexConcat (RegexPlus (RegexUnion (Str2Reg "333") (Str2Reg "444"))) (RegexConcat (RegexPlus (RegexPlus (Str2Reg "2"))) (RegexConcat (RegexPlus (RegexStar (Str2Reg "11"))) (RegexStar (RegexStar (Str2Reg "0"))))))))))))))))))))))))))))))))))))
(check-sat)